Copyright (C) 2013-2015, Filipe Brandao
Build (method = -2)
  #dp: 4015
  Step-3' Graph: 106 vertices and 2159 arcs (0.00s)
  Step-4' Graph: 101 vertices and 2149 arcs (0.00s)
  #V4/#V3 = 0.95
  #A4/#A3 = 1.00
Ready! (0.00s)
Optimize a model with 169 rows, 2150 columns and 6253 nonzeros
Found heuristic solution: objective 92
Presolve removed 23 rows and 23 columns
Presolve time: 0.02s
Presolved: 146 rows, 2127 columns, 6151 nonzeros
Variable types: 0 continuous, 2127 integer (1068 binary)
Optimize a model with 146 rows, 2127 columns and 6151 nonzeros
Presolved: 146 rows, 2127 columns, 6151 nonzeros

Root barrier log...

Ordering time: 0.00s

Barrier statistics:
 AA' NZ     : 3.686e+03
 Factor NZ  : 6.817e+03
 Factor Ops : 4.171e+05 (less than 1 second per iteration)
 Threads    : 1

                  Objective                Residual
Iter       Primal          Dual         Primal    Dual     Compl     Time
   0   1.82648550e+03 -1.43914913e+04  8.18e+03 8.14e-02  1.91e+01     0s
   1   5.59887237e+02 -4.25576383e+03  1.06e+03 3.66e-15  3.00e+00     0s
   2   2.08088788e+02 -1.41209633e+03  1.45e+02 1.87e-02  6.03e-01     0s
   3   1.23472409e+02 -2.04249924e+02  1.32e+01 2.00e-03  9.18e-02     0s
   4   8.41907105e+01 -6.40605410e+01  2.31e+00 6.00e-04  3.64e-02     0s
   5   6.90572978e+01 -4.67914069e+00  1.18e+00 2.82e-15  1.78e-02     0s
   6   6.14180022e+01  1.28854748e+01  7.63e-01 2.42e-15  1.17e-02     0s
   7   5.84915098e+01  3.10440616e+01  5.89e-01 2.62e-15  6.59e-03     0s
   8   5.36975743e+01  3.86028145e+01  3.27e-01 2.70e-15  3.60e-03     0s
   9   5.11410163e+01  4.42149856e+01  9.01e-02 2.42e-15  1.63e-03     0s
  10   4.98815315e+01  4.66700609e+01  1.65e-02 2.14e-15  7.53e-04     0s
  11   4.95411502e+01  4.76676114e+01  1.02e-02 2.69e-15  4.39e-04     0s
  12   4.92776035e+01  4.82120980e+01  5.18e-03 2.45e-15  2.49e-04     0s
  13   4.91017978e+01  4.84710916e+01  2.43e-03 2.82e-15  1.48e-04     0s
  14   4.89930744e+01  4.86369106e+01  1.12e-03 2.15e-15  8.33e-05     0s
  15   4.89219927e+01  4.87134848e+01  3.50e-04 2.74e-15  4.88e-05     0s
  16   4.88767664e+01  4.88286240e+01  7.33e-05 2.25e-15  1.13e-05     0s
  17   4.88705324e+01  4.88539458e+01  2.19e-05 2.43e-15  3.88e-06     0s
  18   4.88651203e+01  4.88631805e+01  3.21e-06 2.50e-15  4.54e-07     0s
  19   4.88639496e+01  4.88639425e+01  2.99e-09 2.64e-15  1.66e-09     0s
  20   4.88639456e+01  4.88639456e+01  3.73e-13 2.55e-15  2.67e-15     0s

Barrier solved model in 20 iterations and 0.02 seconds
Optimal objective 4.88639456e+01


Root relaxation: objective 4.886395e+01, 352 iterations, 0.02 seconds

    Nodes    |    Current Node    |     Objective Bounds      |     Work
 Expl Unexpl |  Obj  Depth IntInf | Incumbent    BestBd   Gap | It/Node Time

     0     0   48.86395    0   31   92.00000   48.86395  46.9%     -    0s
H    0     0                      49.0000000   48.86395  0.28%     -    0s

Explored 0 nodes (988 simplex iterations) in 0.07 seconds
Thread count was 1 (of 4 available processors)

Optimal solution found (tolerance 0.00e+00)
Best objective 4.900000000000e+01, best bound 4.900000000000e+01, gap 0.0%
Preprocessing time: 0.01 seconds
Gurobi run time: 0.07 seconds
Total run time: 0.08 seconds
Objective: 49
Solution:
2 x [i=1, i=41]
1 x [i=2, i=40]
2 x [i=2, i=41]
1 x [i=3, i=39]
1 x [i=3, i=59, i=67]
1 x [i=3, i=60, i=65]
1 x [i=3, i=61, i=64]
1 x [i=3, i=62, i=63]
2 x [i=4, i=38]
1 x [i=5, i=37]
1 x [i=5, i=38]
1 x [i=5, i=58, i=68]
1 x [i=5, i=59, i=65]
2 x [i=6, i=57, i=66]
1 x [i=7, i=36]
1 x [i=8, i=35]
2 x [i=9, i=33]
1 x [i=9, i=34]
1 x [i=9, i=51, i=68]
1 x [i=10, i=52, i=66]
1 x [i=11, i=32]
1 x [i=12, i=30]
1 x [i=12, i=31]
2 x [i=13, i=29]
1 x [i=14, i=28]
1 x [i=15, i=27]
1 x [i=16, i=25]
1 x [i=17, i=47, i=61]
1 x [i=18, i=24]
1 x [i=19, i=23]
1 x [i=19, i=24]
1 x [i=19, i=52, i=55]
1 x [i=20, i=22]
1 x [i=21, i=51, i=54]
1 x [i=22, i=48, i=56]
1 x [i=26, i=42, i=57]
1 x [i=28, i=44, i=53]
1 x [i=31, i=45, i=49]
1 x [i=32, i=43, i=50]
1 x [i=32, i=46, i=46]
1 x [i=35, i=42, i=47]
1 x [i=35, i=43, i=58]
1 x [i=41, i=41, i=46]
